NAME : B-n64-k9.520460.tour
COMMENT : Length = 520460
COMMENT : Found by LKH [Keld Helsgaun] Sun Dec 17 19:11:53 2017
TYPE : TOUR
DIMENSION : 72
TOUR_SECTION
1
33
45
46
59
54
7
71
31
47
18
32
55
42
27
44
69
63
50
53
2
40
65
4
20
16
25
6
5
60
23
56
52
72
34
30
12
29
57
14
17
70
48
62
49
37
61
36
15
66
10
38
13
11
51
19
68
8
9
22
28
39
35
41
67
24
26
58
21
43
64
3
-1
EOF
